benchmarks/VRPTW/TSPTW/solution/n40w100.005.txt.solution
1 2 30 13 21 7 25 5 38 26 27 29 15 35 16 22 14 34 28 3 17 32 8 40 33 24 31 4 11 19 6 36 9 37 12 23 20 18 10 41 39 
377
